NAME: tsp35_30
COMMENT: 35-tsp problem (Padberg/Rinaldi)
TYPE: TSP
DIMENSION: 35
EDGE_WEIGHT_TYPE : EUC_2D
NODE_COORD_SECTION
1 7 14
2 33 13
3 14 35
4 30 29
5 29 20
6 15 5
7 31 14
8 19 16
9 1 10
10 1 21
11 24 12
12 8 6
13 29 29
14 4 30
15 18 27
16 39 11
17 13 0
18 6 36
19 21 12
20 19 4
21 16 24
22 25 3
23 4 16
24 13 32
25 13 39
26 37 22
27 20 2
28 14 1
29 18 39
30 27 25
31 37 36
32 37 28
33 4 32
34 4 22
35 21 27
